c Generated map
c Size: 13 * 13, weights in range: 1 to 10, walls: False, with ratio 0.0
c dim 1 of 4
c
p sp 169 312
c graph contains 169 nodes and 312 arcs
c
a 1 14 7
a 14 1 7
a 1 2 6
a 2 1 6
a 2 15 7
a 15 2 7
a 2 3 1
a 3 2 1
a 3 16 2
a 16 3 2
a 3 4 7
a 4 3 7
a 4 17 4
a 17 4 4
a 4 5 5
a 5 4 5
a 5 18 9
a 18 5 9
a 5 6 6
a 6 5 6
a 6 19 5
a 19 6 5
a 6 7 2
a 7 6 2
a 7 20 4
a 20 7 4
a 7 8 6
a 8 7 6
a 8 21 7
a 21 8 7
a 8 9 6
a 9 8 6
a 9 22 3
a 22 9 3
a 9 10 10
a 10 9 10
a 10 23 8
a 23 10 8
a 10 11 4
a 11 10 4
a 11 24 7
a 24 11 7
a 11 12 9
a 12 11 9
a 12 25 5
a 25 12 5
a 12 13 4
a 13 12 4
a 13 26 3
a 26 13 3
a 14 27 4
a 27 14 4
a 14 15 8
a 15 14 8
a 15 28 3
a 28 15 3
a 15 16 1
a 16 15 1
a 16 29 9
a 29 16 9
a 16 17 4
a 17 16 4
a 17 30 6
a 30 17 6
a 17 18 8
a 18 17 8
a 18 31 5
a 31 18 5
a 18 19 4
a 19 18 4
a 19 32 3
a 32 19 3
a 19 20 3
a 20 19 3
a 20 33 10
a 33 20 10
a 20 21 6
a 21 20 6
a 21 34 3
a 34 21 3
a 21 22 4
a 22 21 4
a 22 35 9
a 35 22 9
a 22 23 9
a 23 22 9
a 23 36 2
a 36 23 2
a 23 24 8
a 24 23 8
a 24 37 5
a 37 24 5
a 24 25 8
a 25 24 8
a 25 38 8
a 38 25 8
a 25 26 4
a 26 25 4
a 26 39 9
a 39 26 9
a 27 40 8
a 40 27 8
a 27 28 10
a 28 27 10
a 28 41 3
a 41 28 3
a 28 29 2
a 29 28 2
a 29 42 10
a 42 29 10
a 29 30 7
a 30 29 7
a 30 43 9
a 43 30 9
a 30 31 1
a 31 30 1
a 31 44 4
a 44 31 4
a 31 32 5
a 32 31 5
a 32 45 3
a 45 32 3
a 32 33 6
a 33 32 6
a 33 46 6
a 46 33 6
a 33 34 6
a 34 33 6
a 34 47 5
a 47 34 5
a 34 35 6
a 35 34 6
a 35 48 6
a 48 35 6
a 35 36 9
a 36 35 9
a 36 49 2
a 49 36 2
a 36 37 10
a 37 36 10
a 37 50 6
a 50 37 6
a 37 38 9
a 38 37 9
a 38 51 8
a 51 38 8
a 38 39 3
a 39 38 3
a 39 52 4
a 52 39 4
a 40 53 8
a 53 40 8
a 40 41 3
a 41 40 3
a 41 54 3
a 54 41 3
a 41 42 2
a 42 41 2
a 42 55 8
a 55 42 8
a 42 43 1
a 43 42 1
a 43 56 10
a 56 43 10
a 43 44 8
a 44 43 8
a 44 57 7
a 57 44 7
a 44 45 1
a 45 44 1
a 45 58 5
a 58 45 5
a 45 46 6
a 46 45 6
a 46 59 3
a 59 46 3
a 46 47 5
a 47 46 5
a 47 60 8
a 60 47 8
a 47 48 10
a 48 47 10
a 48 61 9
a 61 48 9
a 48 49 4
a 49 48 4
a 49 62 3
a 62 49 3
a 49 50 2
a 50 49 2
a 50 63 10
a 63 50 10
a 50 51 8
a 51 50 8
a 51 64 7
a 64 51 7
a 51 52 9
a 52 51 9
a 52 65 5
a 65 52 5
a 53 66 1
a 66 53 1
a 53 54 3
a 54 53 3
a 54 67 6
a 67 54 6
a 54 55 10
a 55 54 10
a 55 68 2
a 68 55 2
a 55 56 9
a 56 55 9
a 56 69 2
a 69 56 2
a 56 57 6
a 57 56 6
a 57 70 1
a 70 57 1
a 57 58 8
a 58 57 8
a 58 71 5
a 71 58 5
a 58 59 5
a 59 58 5
a 59 72 3
a 72 59 3
a 59 60 10
a 60 59 10
a 60 73 2
a 73 60 2
a 60 61 9
a 61 60 9
a 61 74 7
a 74 61 7
a 61 62 7
a 62 61 7
a 62 75 6
a 75 62 6
a 62 63 8
a 63 62 8
a 63 76 6
a 76 63 6
a 63 64 5
a 64 63 5
a 64 77 2
a 77 64 2
a 64 65 1
a 65 64 1
a 65 78 5
a 78 65 5
a 66 79 8
a 79 66 8
a 66 67 4
a 67 66 4
a 67 80 10
a 80 67 10
a 67 68 3
a 68 67 3
a 68 81 2
a 81 68 2
a 68 69 8
a 69 68 8
a 69 82 4
a 82 69 4
a 69 70 5
a 70 69 5
a 70 83 9
a 83 70 9
a 70 71 10
a 71 70 10
a 71 84 7
a 84 71 7
a 71 72 7
a 72 71 7
a 72 85 5
a 85 72 5
a 72 73 9
a 73 72 9
a 73 86 3
a 86 73 3
a 73 74 8
a 74 73 8
a 74 87 4
a 87 74 4
a 74 75 7
a 75 74 7
a 75 88 7
a 88 75 7
a 75 76 6
a 76 75 6
a 76 89 5
a 89 76 5
a 76 77 1
a 77 76 1
a 77 90 1
a 90 77 1
a 77 78 2
a 78 77 2
a 78 91 1
a 91 78 1
a 79 92 9
a 92 79 9
a 79 80 8
a 80 79 8
a 80 93 1
a 93 80 1
a 80 81 5
a 81 80 5
a 81 94 5
a 94 81 5
a 81 82 2
a 82 81 2
a 82 95 1
a 95 82 1
a 82 83 5
a 83 82 5
a 83 96 10
a 96 83 10
a 83 84 7
a 84 83 7
a 84 97 10
a 97 84 10
a 84 85 8
a 85 84 8
a 85 98 4
a 98 85 4
a 85 86 1
a 86 85 1
a 86 99 4
a 99 86 4
a 86 87 8
a 87 86 8
a 87 100 6
a 100 87 6
a 87 88 9
a 88 87 9
a 88 101 7
a 101 88 7
a 88 89 6
a 89 88 6
a 89 102 1
a 102 89 1
a 89 90 9
a 90 89 9
a 90 103 10
a 103 90 10
a 90 91 3
a 91 90 3
a 91 104 9
a 104 91 9
a 92 105 4
a 105 92 4
a 92 93 8
a 93 92 8
a 93 106 7
a 106 93 7
a 93 94 10
a 94 93 10
a 94 107 10
a 107 94 10
a 94 95 8
a 95 94 8
a 95 108 1
a 108 95 1
a 95 96 1
a 96 95 1
a 96 109 6
a 109 96 6
a 96 97 6
a 97 96 6
a 97 110 10
a 110 97 10
a 97 98 5
a 98 97 5
a 98 111 9
a 111 98 9
a 98 99 4
a 99 98 4
a 99 112 10
a 112 99 10
a 99 100 10
a 100 99 10
a 100 113 7
a 113 100 7
a 100 101 4
a 101 100 4
a 101 114 1
a 114 101 1
a 101 102 1
a 102 101 1
a 102 115 5
a 115 102 5
a 102 103 6
a 103 102 6
a 103 116 2
a 116 103 2
a 103 104 9
a 104 103 9
a 104 117 4
a 117 104 4
a 105 118 9
a 118 105 9
a 105 106 4
a 106 105 4
a 106 119 3
a 119 106 3
a 106 107 2
a 107 106 2
a 107 120 2
a 120 107 2
a 107 108 6
a 108 107 6
a 108 121 4
a 121 108 4
a 108 109 7
a 109 108 7
a 109 122 1
a 122 109 1
a 109 110 8
a 110 109 8
a 110 123 9
a 123 110 9
a 110 111 10
a 111 110 10
a 111 124 8
a 124 111 8
a 111 112 1
a 112 111 1
a 112 125 2
a 125 112 2
a 112 113 10
a 113 112 10
a 113 126 6
a 126 113 6
a 113 114 10
a 114 113 10
a 114 127 4
a 127 114 4
a 114 115 10
a 115 114 10
a 115 128 7
a 128 115 7
a 115 116 10
a 116 115 10
a 116 129 10
a 129 116 10
a 116 117 8
a 117 116 8
a 117 130 5
a 130 117 5
a 118 131 2
a 131 118 2
a 118 119 2
a 119 118 2
a 119 132 1
a 132 119 1
a 119 120 4
a 120 119 4
a 120 133 4
a 133 120 4
a 120 121 2
a 121 120 2
a 121 134 1
a 134 121 1
a 121 122 9
a 122 121 9
a 122 135 1
a 135 122 1
a 122 123 9
a 123 122 9
a 123 136 5
a 136 123 5
a 123 124 2
a 124 123 2
a 124 137 3
a 137 124 3
a 124 125 9
a 125 124 9
a 125 138 2
a 138 125 2
a 125 126 3
a 126 125 3
a 126 139 6
a 139 126 6
a 126 127 2
a 127 126 2
a 127 140 4
a 140 127 4
a 127 128 6
a 128 127 6
a 128 141 2
a 141 128 2
a 128 129 10
a 129 128 10
a 129 142 10
a 142 129 10
a 129 130 5
a 130 129 5
a 130 143 3
a 143 130 3
a 131 144 10
a 144 131 10
a 131 132 9
a 132 131 9
a 132 145 5
a 145 132 5
a 132 133 6
a 133 132 6
a 133 146 8
a 146 133 8
a 133 134 6
a 134 133 6
a 134 147 2
a 147 134 2
a 134 135 8
a 135 134 8
a 135 148 9
a 148 135 9
a 135 136 6
a 136 135 6
a 136 149 8
a 149 136 8
a 136 137 7
a 137 136 7
a 137 150 1
a 150 137 1
a 137 138 8
a 138 137 8
a 138 151 4
a 151 138 4
a 138 139 5
a 139 138 5
a 139 152 7
a 152 139 7
a 139 140 10
a 140 139 10
a 140 153 9
a 153 140 9
a 140 141 3
a 141 140 3
a 141 154 6
a 154 141 6
a 141 142 2
a 142 141 2
a 142 155 3
a 155 142 3
a 142 143 7
a 143 142 7
a 143 156 9
a 156 143 9
a 144 157 4
a 157 144 4
a 144 145 2
a 145 144 2
a 145 158 9
a 158 145 9
a 145 146 6
a 146 145 6
a 146 159 8
a 159 146 8
a 146 147 3
a 147 146 3
a 147 160 1
a 160 147 1
a 147 148 5
a 148 147 5
a 148 161 9
a 161 148 9
a 148 149 5
a 149 148 5
a 149 162 5
a 162 149 5
a 149 150 9
a 150 149 9
a 150 163 1
a 163 150 1
a 150 151 5
a 151 150 5
a 151 164 7
a 164 151 7
a 151 152 1
a 152 151 1
a 152 165 9
a 165 152 9
a 152 153 7
a 153 152 7
a 153 166 6
a 166 153 6
a 153 154 1
a 154 153 1
a 154 167 1
a 167 154 1
a 154 155 1
a 155 154 1
a 155 168 5
a 168 155 5
a 155 156 10
a 156 155 10
a 156 169 3
a 169 156 3
a 157 158 4
a 158 157 4
a 158 159 2
a 159 158 2
a 159 160 7
a 160 159 7
a 160 161 1
a 161 160 1
a 161 162 6
a 162 161 6
a 162 163 10
a 163 162 10
a 163 164 3
a 164 163 3
a 164 165 1
a 165 164 1
a 165 166 10
a 166 165 10
a 166 167 5
a 167 166 5
a 167 168 9
a 168 167 9
a 168 169 3
a 169 168 3
